; benchmark generated from python API
(set-info :status unknown)
(declare-datatypes ((RealState 0)) (((RMk1 (rval1 Real)) (RMk2 (rval2 Real)))))
 (assert
 (forall ((|v17:0| Real) )(forall ((|v16:1| Real) )(forall ((|v15:2| Real) )(forall ((|v14:3| Real) )(forall ((|v13:4| Real) )(forall ((|v12:5| Real) )(exists ((|v11:6_st| RealState) (val!10422 Real) )(exists ((|v10:7_st| RealState) (val!10423 Real) )(exists ((|v9:8_st| RealState) (val!10424 Real) )(exists ((|v8:9_st| RealState) (val!10425 Real) )(exists ((|v7:10_st| RealState) (val!10426 Real) )(exists ((|v6:11_st| RealState) (val!10427 Real) )(forall ((|v5:12| Real) )(forall ((|v4:13| Real) )(forall ((|v3:14| Real) )(forall ((|v2:15| Real) )(forall ((|v1:16| Real) )(forall ((|v0:17| Real) )(let ((?x8102 (* 10.0 |v14:3|)))
 (let ((?x6077 (* 18.0 |v3:14|)))
 (let ((?x9093 (* 10.0 |v0:17|)))
 (let ((?x9308 (- 7.0)))
 (let ((?x2972 (* ?x9308 |v5:12|)))
 (let ((?x7335 (+ (+ (+ (* (- 9.0) |v0:17|) (* (- 4.0) |v17:0|)) (* 8.0 |v5:12|)) ?x2972)))
 (let ((?x3171 (* 4.0 |v1:16|)))
 (let ((?x5025 (* 19.0 |v3:14|)))
 (let ((?x7925 (- 3.0)))
 (let ((?x7410 (* ?x7925 |v5:12|)))
 (let ((?x9179 (- 9.0)))
 (let ((?x7915 (* ?x9179 |v3:14|)))
 (let ((?x3648 (+ (+ (+ (+ (* (- 15.0) |v3:14|) (* (- 19.0) |v17:0|)) ?x7915) ?x7410) ?x5025)))
 (let (($x800 (and (<= (+ (+ ?x3648 ?x3171) (* (- 19.0) (rval2 |v8:9_st|))) 11.0) (<= (+ (+ (+ ?x7335 ?x9093) ?x6077) ?x8102) 2.0))))
 (let ((?x979 (- 19.0)))
 (let ((?x286 (- 16.0)))
 (let ((?x9421 (* ?x286 |v0:17|)))
 (let ((?x7468 (- 11.0)))
 (let ((?x4879 (* ?x7468 |v0:17|)))
 (let ((?x8217 (+ (+ (+ (* 9.0 |v4:13|) (* 2.0 |v0:17|)) (* ?x9179 |v0:17|)) (* 12.0 |v4:13|))))
 (let ((?x1687 (+ ?x8217 ?x4879)))
 (let ((?x1307 (* 19.0 |v0:17|)))
 (let ((?x2312 (- 1.0)))
 (let ((?x5459 (* ?x2312 |v1:16|)))
 (let ((?x6274 (- 13.0)))
 (let ((?x3048 (* ?x6274 |v2:15|)))
 (let ((?x541 (* 0.0 |v1:16|)))
 (let ((?x5046 (+ (+ (+ (+ (+ (* (- 15.0) |v15:2|) (* 11.0 |v2:15|)) |v15:2|) ?x541) ?x3048) ?x5459)))
 (let (($x8183 (or (or (<= (+ ?x5046 ?x1307) ?x286) (<= (+ (+ ?x1687 |v14:3|) ?x9421) ?x979)) $x800)))
 (let ((?x3336 (* 9.0 |v2:15|)))
 (let ((?x3452 (rval2 |v11:6_st|)))
 (let ((?x1262 (- 12.0)))
 (let ((?x7785 (* ?x1262 ?x3452)))
 (let ((?x5242 (* 5.0 |v4:13|)))
 (let ((?x4085 (+ (+ (+ (* ?x1262 |v14:3|) ?x5242) (* 20.0 (rval2 |v7:10_st|))) (* (- 5.0) |v15:2|))))
 (let ((?x7928 (- 4.0)))
 (let ((?x370 (rval2 |v8:9_st|)))
 (let ((?x2202 (* 20.0 ?x370)))
 (let ((?x6434 (* 9.0 |v15:2|)))
 (let ((?x379 (* 0.0 |v3:14|)))
 (let ((?x2281 (+ (+ (+ (+ (* (- 14.0) |v17:0|) (* (- 6.0) ?x370)) ?x379) ?x379) (* 2.0 |v15:2|))))
 (let (($x318 (and (<= (+ (+ ?x2281 ?x6434) ?x2202) ?x7928) (<= (+ (+ (+ ?x4085 ?x5242) ?x7785) ?x3336) 5.0))))
 (let ((?x6681 (- 8.0)))
 (let ((?x9074 (rval2 |v6:11_st|)))
 (let ((?x3483 (* ?x7925 ?x370)))
 (let ((?x5343 (+ (+ (+ (+ (* 10.0 (rval2 |v7:10_st|)) ?x3452) (* 15.0 |v5:12|)) ?x3483) (* ?x9308 (rval2 |v7:10_st|)))))
 (let ((?x6212 (* ?x9179 |v15:2|)))
 (let ((?x3965 (* 3.0 |v4:13|)))
 (let ((?x6433 (* 18.0 |v5:12|)))
 (let ((?x4679 (+ (+ (+ (+ (* 17.0 ?x3452) ?x5025) (* ?x7468 |v15:2|)) (* (- 6.0) |v12:5|)) ?x6433)))
 (let (($x6419 (or (<= (+ (+ ?x4679 ?x3965) ?x6212) 7.0) (<= (+ (+ ?x5343 ?x9074) (* ?x7468 ?x9074)) ?x6681))))
 (let ((?x4209 (- 10.0)))
 (let ((?x2359 (* ?x4209 |v4:13|)))
 (let ((?x7358 (- 14.0)))
 (let ((?x8294 (* ?x7358 |v12:5|)))
 (let ((?x5676 (* 6.0 |v5:12|)))
 (let ((?x2722 (* 10.0 ?x3452)))
 (let ((?x7245 (+ (+ (+ (* 12.0 |v15:2|) (* (- 15.0) |v15:2|)) (* ?x9179 (rval2 |v7:10_st|))) ?x2722)))
 (let ((?x5494 (* ?x1262 |v12:5|)))
 (let ((?x4552 (rval2 |v9:8_st|)))
 (let ((?x7191 (* 17.0 ?x4552)))
 (let ((?x658 (+ (+ (+ (+ ?x5494 (* 7.0 |v0:17|)) (* 16.0 ?x9074)) (* 8.0 |v13:4|)) ?x7191)))
 (let (($x4855 (or (<= (+ (+ ?x658 ?x1307) ?x5494) ?x7358) (<= (+ (+ (+ ?x7245 ?x5676) ?x8294) ?x2359) 12.0))))
 (let ((?x4784 (rval2 |v10:7_st|)))
 (let ((?x1944 (* 5.0 ?x4784)))
 (let ((?x4086 (* 17.0 |v13:4|)))
 (let ((?x3405 (+ (+ (+ (+ (+ (* 18.0 |v4:13|) ?x2202) ?x6212) (* ?x7928 |v12:5|)) ?x4086) ?x1944)))
 (let ((?x7491 (* 9.0 |v14:3|)))
 (let ((?x7122 (- 17.0)))
 (let ((?x5308 (* ?x7122 ?x370)))
 (let ((?x8639 (+ (+ (+ (* 13.0 |v5:12|) (* ?x9308 |v13:4|)) (* 4.0 |v0:17|)) (* 15.0 (rval2 |v7:10_st|)))))
 (let ((?x863 (* ?x6681 |v4:13|)))
 (let ((?x8433 (- 18.0)))
 (let ((?x9856 (* ?x8433 |v17:0|)))
 (let ((?x1722 (* 17.0 |v1:16|)))
 (let ((?x8447 (+ (+ (+ (* (- 15.0) |v4:13|) (* ?x9308 |v14:3|)) (* (- 6.0) |v13:4|)) ?x1722)))
 (let (($x2587 (and (<= (+ (+ (+ ?x8447 ?x9856) |v3:14|) ?x863) 4.0) (<= (+ (+ (+ ?x8639 (* 2.0 |v16:1|)) ?x5308) ?x7491) ?x7928))))
 (let ((?x254 (* ?x7358 |v3:14|)))
 (let ((?x9899 (+ (+ (+ (* 3.0 |v1:16|) (* ?x286 (rval2 |v7:10_st|))) (* 9.0 |v13:4|)) ?x254)))
 (let ((?x1898 (- 2.0)))
 (let ((?x98 (* ?x1898 |v4:13|)))
 (let ((?x2087 (* 3.0 |v3:14|)))
 (let ((?x2966 (+ (+ (+ (* 5.0 |v14:3|) (* ?x1898 ?x370)) (* ?x6681 (rval2 |v7:10_st|))) (* 4.0 ?x3452))))
 (let (($x5652 (and (<= (+ (+ (+ ?x2966 ?x2087) (* 19.0 |v14:3|)) ?x98) 0.0) (<= (+ (+ (+ ?x9899 (* ?x7468 ?x3452)) (* 0.0 |v16:1|)) ?x2972) ?x9308))))
 (let (($x1124 (or (and (or $x5652 $x2587) (or (<= (+ ?x3405 (* ?x7468 ?x370)) 20.0) $x4855)) (and (or $x6419 $x318) $x8183))))
 (let ((?x443 (* 12.0 ?x370)))
 (let ((?x2715 (* ?x8433 |v5:12|)))
 (let ((?x2934 (* ?x6681 ?x370)))
 (let ((?x793 (+ (+ (+ (+ (* ?x7928 |v16:1|) (* 5.0 ?x9074)) (* 6.0 |v13:4|)) ?x2934) ?x2715)))
 (let ((?x2357 (* 15.0 |v4:13|)))
 (let ((?x7683 (* 15.0 |v15:2|)))
 (let ((?x3711 (+ (+ (+ (+ (* 9.0 ?x4784) (* 19.0 |v16:1|)) (* 13.0 |v3:14|)) ?x7683) (* ?x2312 ?x4784))))
 (let (($x5092 (or (<= (+ (+ ?x3711 (* ?x9308 ?x370)) ?x2357) ?x1262) (<= (+ (+ ?x793 (* ?x286 ?x370)) ?x443) 14.0))))
 (let ((?x2933 (* 2.0 ?x370)))
 (let ((?x442 (* 12.0 |v5:12|)))
 (let ((?x6123 (+ (+ (+ (* 10.0 |v13:4|) (* 5.0 |v14:3|)) (* ?x7358 |v4:13|)) (* ?x7122 ?x3452))))
 (let ((?x1812 (- 6.0)))
 (let ((?x5278 (* 3.0 |v17:0|)))
 (let ((?x4282 (+ (+ (+ (* ?x1898 ?x370) (* ?x1812 |v0:17|)) (* (- 5.0) ?x4784)) (* (- 15.0) |v12:5|))))
 (let (($x7380 (or (<= (+ (+ (+ ?x4282 (* ?x1262 ?x4784)) ?x5278) (* (- 20.0) |v16:1|)) ?x1812) (<= (+ (+ (+ ?x6123 ?x442) ?x2933) (* ?x8433 ?x4784)) 5.0))))
 (let ((?x4550 (* 2.0 |v17:0|)))
 (let ((?x5987 (* ?x4209 |v1:16|)))
 (let ((?x9076 (* ?x286 |v3:14|)))
 (let ((?x4595 (* ?x6274 |v4:13|)))
 (let ((?x2742 (+ (+ (+ (+ (* ?x4209 ?x3452) (* ?x6681 ?x4552)) (* 20.0 |v14:3|)) ?x4595) ?x9076)))
 (let ((?x6410 (* 17.0 |v5:12|)))
 (let ((?x1878 (* ?x7928 |v4:13|)))
 (let ((?x1925 (* 2.0 |v3:14|)))
 (let ((?x5169 (+ (+ (+ (* ?x286 |v13:4|) (* ?x1812 |v3:14|)) (* 12.0 |v2:15|)) (* (- 20.0) |v15:2|))))
 (let (($x6429 (or (<= (+ (+ (+ ?x5169 ?x1925) ?x1878) ?x6410) 2.0) (<= (+ (+ ?x2742 ?x5987) ?x4550) ?x7468))))
 (let ((?x2030 (* 8.0 |v2:15|)))
 (let ((?x7990 (* 8.0 |v4:13|)))
 (let ((?x8216 (+ (+ (+ (+ (* ?x6274 ?x4784) (* (- 20.0) |v0:17|)) (* ?x4209 |v2:15|)) ?x3483) ?x7990)))
 (let ((?x3686 (rval2 |v7:10_st|)))
 (let ((?x4273 (* 18.0 ?x3686)))
 (let ((?x8683 (* 14.0 |v17:0|)))
 (let ((?x6850 (+ (+ (+ (* 16.0 |v4:13|) (* ?x286 |v14:3|)) (* 20.0 ?x9074)) (* 0.0 |v14:3|))))
 (let (($x3528 (and (<= (+ (+ (+ ?x6850 ?x8683) ?x4879) ?x4273) ?x9179) (<= (+ (+ ?x8216 (* ?x9308 |v17:0|)) ?x2030) ?x6681))))
 (let ((?x664 (* ?x9179 |v0:17|)))
 (let ((?x7590 (+ (+ (+ (+ (* ?x979 |v3:14|) ?x5987) (* 13.0 |v2:15|)) (* ?x9308 |v3:14|)) ?x664)))
 (let ((?x914 (* 3.0 ?x3686)))
 (let ((?x6225 (* 14.0 |v16:1|)))
 (let ((?x561 (+ (+ (+ (+ (* 20.0 ?x4552) ?x6433) (* ?x9308 ?x3452)) (* 16.0 ?x4784)) ?x6225)))
 (let ((?x7172 (* ?x6274 |v0:17|)))
 (let ((?x7562 (* 17.0 ?x3452)))
 (let ((?x5876 (* 16.0 |v2:15|)))
 (let ((?x9834 (+ (+ (+ (+ (* ?x2312 |v16:1|) (* (- 15.0) |v0:17|)) (* 3.0 ?x370)) ?x5876) ?x5278)))
 (let (($x3851 (and (<= (+ (+ ?x9834 ?x7562) ?x7172) ?x2312) (<= (+ (+ ?x561 ?x5242) ?x914) ?x1898))))
 (let ((?x7008 (+ (+ (+ (+ |v15:2| (* 14.0 |v0:17|)) (* (- 20.0) ?x3452)) (* ?x7468 |v1:16|)) |v12:5|)))
 (let ((?x2599 (* ?x7358 |v5:12|)))
 (let ((?x7321 (* 12.0 ?x9074)))
 (let ((?x6327 (* 14.0 |v5:12|)))
 (let ((?x9023 (+ (+ (+ (+ (* 14.0 ?x3686) (* 15.0 |v2:15|)) (* ?x286 |v12:5|)) ?x6327) ?x2087)))
 (let (($x2425 (and (<= (+ (+ ?x9023 ?x7321) ?x2599) 8.0) (<= (+ (+ ?x7008 ?x8294) ?x7785) 15.0))))
 (let ((?x9138 (* 16.0 ?x3452)))
 (let ((?x3744 (- 5.0)))
 (let ((?x872 (* ?x3744 |v2:15|)))
 (let ((?x1446 (* ?x3744 ?x4784)))
 (let ((?x1026 (+ (+ (+ (+ (* 9.0 ?x3452) (* ?x7358 |v1:16|)) (* ?x7928 ?x3452)) ?x1446) ?x872)))
 (let ((?x4670 (* ?x6274 |v12:5|)))
 (let ((?x5997 (+ (+ (+ (* ?x9308 ?x3452) (* ?x2312 ?x3686)) (* 19.0 ?x4784)) (* ?x3744 |v12:5|))))
 (let (($x3837 (or (<= (+ (+ (+ ?x5997 ?x4550) (* ?x9179 |v12:5|)) ?x4670) 13.0) (<= (+ (+ ?x1026 ?x9138) (* (- 15.0) ?x9074)) 3.0))))
 (let (($x5345 (or (and (or $x3837 $x2425) (and $x3851 (<= (+ (+ ?x7590 ?x9856) ?x7491) 12.0))) (or (or $x3528 $x6429) (or $x7380 $x5092)))))
 (let ((?x355 (* 2.0 ?x3452)))
 (let ((?x6297 (* 9.0 ?x9074)))
 (let ((?x4960 (+ (+ (+ (* 14.0 |v2:15|) (* 13.0 |v0:17|)) (* ?x7925 ?x3686)) (* ?x979 ?x4784))))
 (let ((?x4498 (* 13.0 |v4:13|)))
 (let ((?x2343 (+ (+ (+ (+ (* 16.0 |v14:3|) (* 20.0 |v2:15|)) ?x5308) (* 19.0 |v2:15|)) (* 13.0 |v13:4|))))
 (let ((?x5432 (* 5.0 |v14:3|)))
 (let ((?x581 (- 15.0)))
 (let ((?x635 (* ?x581 |v2:15|)))
 (let ((?x5967 (* ?x7468 |v2:15|)))
 (let ((?x7553 (+ (+ (+ (+ (* 15.0 |v17:0|) (* 17.0 ?x370)) (* ?x581 |v0:17|)) ?x5967) (* ?x4209 |v12:5|))))
 (let (($x6704 (and (<= (+ (+ ?x7553 ?x635) ?x5432) 2.0) (<= (+ (+ ?x2343 (* ?x7468 |v16:1|)) ?x4498) 20.0))))
 (let ((?x6760 (* ?x9179 ?x3452)))
 (let ((?x5123 (- 20.0)))
 (let ((?x7527 (* ?x5123 |v4:13|)))
 (let ((?x426 (+ (+ (+ (* ?x3744 |v17:0|) (* 4.0 |v2:15|)) (* ?x1812 |v1:16|)) (* ?x7358 |v16:1|))))
 (let ((?x3790 (* ?x7925 ?x3686)))
 (let ((?x441 (* 7.0 |v2:15|)))
 (let ((?x8737 (+ (+ (+ (+ (* 17.0 |v17:0|) (* ?x9308 |v16:1|)) (* 7.0 |v16:1|)) ?x441) ?x3790)))
 (let (($x6287 (and (<= (+ (+ ?x8737 (* ?x6681 |v17:0|)) (* ?x7468 ?x3686)) 8.0) (<= (+ (+ (+ ?x426 (* ?x2312 |v13:4|)) ?x7527) ?x6760) ?x286))))
 (let ((?x9324 (* 14.0 |v12:5|)))
 (let ((?x4218 (+ (+ (+ (+ |v3:14| (* ?x6274 |v16:1|)) (* ?x581 |v15:2|)) (* 13.0 ?x4784)) ?x9324)))
 (let ((?x8523 (* ?x7928 |v1:16|)))
 (let ((?x5093 (+ (+ (+ (+ (+ |v0:17| (* ?x7928 ?x9074)) ?x8102) (* 16.0 ?x3686)) ?x6434) ?x8523)))
 (let (($x7964 (and (<= (+ ?x5093 (* ?x7925 ?x9074)) 6.0) (<= (+ (+ ?x4218 (* ?x3744 ?x3686)) (* 11.0 |v17:0|)) 19.0))))
 (let ((?x6019 (* 11.0 |v14:3|)))
 (let ((?x1980 (+ (+ (+ (+ (* 6.0 |v2:15|) (* 3.0 ?x370)) (* ?x979 |v13:4|)) ?x6019) ?x4550)))
 (let ((?x4108 (* ?x6681 ?x3686)))
 (let ((?x5235 (+ (+ (+ (* ?x286 ?x3452) (* ?x7122 |v0:17|)) (* ?x7925 |v2:15|)) (* 6.0 ?x3686))))
 (let (($x4995 (or (<= (+ (+ (+ ?x5235 |v14:3|) ?x4670) ?x4108) 3.0) (<= (+ (+ ?x1980 ?x5967) (* ?x3744 ?x9074)) 10.0))))
 (let ((?x3958 (* 15.0 ?x3452)))
 (let ((?x9755 (+ (+ (+ (+ ?x2030 (* 9.0 |v13:4|)) (* ?x6681 |v0:17|)) ?x3336) (* 18.0 ?x3452))))
 (let (($x890 (and (<= (+ (+ ?x9755 ?x6434) ?x3958) ?x7358) (and (or $x4995 $x7964) (and $x6287 $x6704)))))
 (let (($x4339 (or (and $x890 (<= (+ (+ (+ ?x4960 ?x6297) (* ?x7928 |v13:4|)) ?x355) ?x979)) (and $x5345 $x1124))))
 (let ((?x9247 (* 19.0 ?x4552)))
 (let ((?x2544 (+ (+ (+ (+ (* ?x5123 |v14:3|) (* 3.0 |v12:5|)) ?x2934) (* 12.0 |v3:14|)) ?x9247)))
 (let ((?x7927 (* 16.0 ?x4552)))
 (let ((?x1492 (* 11.0 |v0:17|)))
 (let ((?x2791 (* ?x6274 |v5:12|)))
 (let ((?x1022 (+ (+ (+ (+ (* 5.0 ?x370) |v5:12|) (* 16.0 ?x4784)) (* 4.0 |v5:12|)) ?x2791)))
 (let ((?x9268 (* ?x6681 |v5:12|)))
 (let ((?x1346 (* ?x7468 |v4:13|)))
 (let ((?x4159 (+ (+ (+ (+ (+ ?x5459 (* 7.0 |v17:0|)) ?x379) ?x5967) (* ?x7928 |v2:15|)) ?x1346)))
 (let ((?x8753 (+ (+ (+ (+ (+ ?x7562 (* ?x3744 |v14:3|)) ?x3048) (* ?x7925 ?x4552)) ?x5278) (* 5.0 |v15:2|))))
 (let ((?x9224 (* ?x979 ?x3686)))
 (let ((?x2400 (* 19.0 ?x4784)))
 (let ((?x1829 (+ (+ (+ (+ (* 3.0 |v1:16|) (* ?x1898 ?x370)) (* ?x5123 |v5:12|)) ?x2400) ?x9224)))
 (let ((?x6986 (+ (+ (+ (+ (* 18.0 ?x9074) ?x2202) ?x5987) (* ?x1262 |v14:3|)) (* ?x2312 |v14:3|))))
 (let (($x8968 (and (<= (+ (+ ?x6986 ?x9324) ?x2030) 19.0) (<= (+ (+ ?x1829 (* ?x8433 |v12:5|)) (* 16.0 |v12:5|)) ?x1262))))
 (let (($x7702 (or (and $x8968 (and (<= (+ ?x8753 ?x5025) 18.0) (<= (+ ?x4159 ?x9268) ?x7468))) (<= (+ (+ ?x1022 ?x1492) ?x7927) 4.0))))
 (let ((?x5571 (* 15.0 |v3:14|)))
 (let ((?x3614 (* 11.0 |v13:4|)))
 (let ((?x870 (+ (+ (+ (+ (* 20.0 ?x4784) (* ?x979 ?x4552)) (* ?x7928 |v14:3|)) ?x3614) (* ?x7122 |v16:1|))))
 (let ((?x3953 (* 9.0 |v4:13|)))
 (let ((?x2651 (+ (+ (+ (+ ?x6760 (* 7.0 |v0:17|)) ?x3614) (* 7.0 ?x9074)) (* ?x8433 |v16:1|))))
 (let (($x2882 (and (<= (+ (+ ?x2651 ?x3953) (* ?x6681 ?x9074)) 12.0) (<= (+ (+ ?x870 (* ?x581 |v17:0|)) ?x5571) 5.0))))
 (let ((?x4520 (* 3.0 |v1:16|)))
 (let ((?x9065 (* 4.0 |v2:15|)))
 (let ((?x7046 (+ (+ (+ (* 14.0 ?x4552) (* ?x1812 ?x4552)) (* 16.0 |v4:13|)) (* ?x2312 ?x370))))
 (let ((?x7971 (+ (+ (+ (+ (* 14.0 |v13:4|) ?x5987) (* ?x8433 |v0:17|)) (* ?x979 |v2:15|)) (* ?x1262 ?x370))))
 (let (($x5754 (and (<= (+ (+ ?x7971 ?x2030) (* 20.0 |v15:2|)) 5.0) (<= (+ (+ (+ ?x7046 ?x9065) ?x4520) ?x9224) ?x6681))))
 (let ((?x833 (* ?x581 |v4:13|)))
 (let ((?x8588 (+ (+ (+ (+ (* ?x581 |v14:3|) ?x5025) (* 7.0 |v5:12|)) (* ?x3744 ?x370)) ?x9138)))
 (let ((?x1109 (+ (+ (+ (+ ?x6225 (* ?x286 |v15:2|)) (* 18.0 |v15:2|)) (* ?x7122 |v3:14|)) ?x8683)))
 (let (($x4167 (or (<= (+ (+ ?x1109 (* ?x581 ?x3452)) (* 12.0 |v12:5|)) ?x7122) (<= (+ (+ ?x8588 ?x833) (* ?x1898 ?x4784)) 17.0))))
 (let ((?x9116 (* ?x1812 |v4:13|)))
 (let ((?x7478 (* 7.0 |v14:3|)))
 (let ((?x3516 (* ?x5123 |v3:14|)))
 (let ((?x2265 (+ (+ (+ (+ (* ?x2312 ?x9074) (* 17.0 |v14:3|)) (* 4.0 |v3:14|)) ?x3516) (* 7.0 ?x4784))))
 (let (($x9649 (and (or (or (<= (+ (+ ?x2265 ?x7478) ?x9116) 10.0) $x4167) (or $x5754 $x2882)) $x7702)))
 (let ((?x4228 (+ (+ (+ (+ (* 13.0 |v0:17|) (* ?x9308 |v15:2|)) ?x1878) (* 12.0 |v1:16|)) (* ?x7468 |v12:5|))))
 (let (($x2652 (or (or (<= (+ (+ ?x4228 (* 12.0 |v13:4|)) (* ?x9179 |v14:3|)) ?x1262) $x9649) (<= (+ (+ ?x2544 (* 15.0 ?x370)) (* ?x6681 |v12:5|)) 5.0))))
 (let (($x4184 (not (= |v6:11_st| (RMk1 val!10427)))))
 (let (($x3947 (not (= |v7:10_st| (RMk1 val!10426)))))
 (let (($x3746 (not (= |v8:9_st| (RMk1 val!10425)))))
 (let (($x3505 (not (= |v9:8_st| (RMk1 val!10424)))))
 (let (($x1202 (not (= |v10:7_st| (RMk1 val!10423)))))
 (let (($x2351 (not (= |v11:6_st| (RMk1 val!10422)))))
 (and $x2351 $x1202 $x3505 $x3746 $x3947 $x4184 (and $x2652 $x4339)))))))))))))))))))))))))))))))))))))))))))))))))))))))))))))))))))))))))))))))))))))))))))))))))))))))))))))))))))))))))))))))))))))))))))))))))))))))))))))))))))))))))))))))))))))))))))))))))))))))))))))))))))))))))))))))
 )
 )
 )
 )
 )
 )
 )
 )
 )
 )
 )
 )
 )
 )
 )
 )
 )
 )
(check-sat)
